
Gurobi 10.0.1 (linux64) logging started Fri Apr  4 10:12:38 2025

Set parameter LogFile to value "Results/OneScenarioExperiments/option2_with_equality_constraints.log"
Set parameter TimeLimit to value 84600
Warning: linear constraint 797496 and linear constraint 797497 have the same name "storage_equal[1,2,1]"
Warning: default constraint names used to write mps file
Gurobi Optimizer version 10.0.1 build v10.0.1rc0 (linux64)

CPU model: AMD EPYC 9654 96-Core Processor, instruction set [SSE2|AVX|AVX2|AVX512]
Thread count: 192 physical cores, 192 logical processors, using up to 32 threads

Academic license 656792 - for non-commercial use only - registered to b.___@student.vu.nl
Optimize a model with 1703600 rows, 1948128 columns and 7223504 nonzeros
Model fingerprint: 0xae8d3be0
Coefficient statistics:
  Matrix range     [2e-01, 1e+00]
  Objective range  [6e-05, 5e+00]
  Bounds range     [0e+00, 0e+00]
  RHS range        [1e-02, 1e+03]
Presolve removed 1462602 rows and 1548265 columns
Presolve time: 4.40s
Presolved: 240998 rows, 399890 columns, 1511400 nonzeros

Concurrent LP optimizer: primal simplex, dual simplex, and barrier
Showing barrier log only...

Ordering time: 1.66s

Barrier statistics:
 AA' NZ     : 1.945e+06
 Factor NZ  : 2.160e+07 (roughly 240 MB of memory)
 Factor Ops : 1.926e+10 (less than 1 second per iteration)
 Threads    : 30

                  Objective                Residual
Iter       Primal          Dual         Primal    Dual     Compl     Time
   0  -2.59571048e+05  1.05523612e+08  7.82e+03 3.78e+01  1.71e+04     7s
   1  -7.36259589e+06  8.15092881e+07  1.98e+03 5.56e+00  3.78e+03     7s
   2  -7.54929846e+06  3.52925721e+07  4.78e+02 3.43e-01  7.14e+02     7s
   3  -2.99697348e+06  8.39928576e+06  6.86e+01 2.81e-02  1.19e+02     7s
   4  -7.29528664e+05  3.19238561e+06  1.32e+01 7.72e-03  3.12e+01     7s
   5  -2.60910383e+05  1.39539484e+06  3.86e+00 2.97e-03  1.16e+01     7s
   6  -8.74516711e+04  5.05640429e+05  1.29e+00 9.36e-04  3.82e+00     7s
   7  -8.05770118e+03  1.60502708e+05  2.33e-01 2.45e-04  9.88e-01     8s
   8   1.07348550e+04  6.32028509e+04  5.16e-02 7.22e-05  2.95e-01     8s
   9   1.50607297e+04  3.93249577e+04  2.45e-02 3.10e-05  1.35e-01     8s
  10   1.77734467e+04  3.02040818e+04  1.16e-02 1.55e-05  6.87e-02     8s
  11   1.93125016e+04  2.65625049e+04  5.82e-03 9.21e-06  3.97e-02     8s
  12   2.00934208e+04  2.46739032e+04  3.33e-03 5.85e-06  2.49e-02     8s
  13   2.05991621e+04  2.30292670e+04  1.92e-03 2.87e-06  1.32e-02     8s
  14   2.10450896e+04  2.21765671e+04  8.38e-04 1.26e-06  6.15e-03     8s
  15   2.11558898e+04  2.20066090e+04  6.09e-04 9.45e-07  4.62e-03     8s
  16   2.12986756e+04  2.17891568e+04  3.23e-04 5.45e-07  2.66e-03     8s
  17   2.13669223e+04  2.16925908e+04  1.96e-04 3.72e-07  1.76e-03     8s
  18   2.14037760e+04  2.16559680e+04  1.32e-04 3.11e-07  1.36e-03     8s
  19   2.14232698e+04  2.15850556e+04  9.76e-05 1.82e-07  8.75e-04     9s
  20   2.14420447e+04  2.15745573e+04  6.60e-05 1.65e-07  7.13e-04     9s
  21   2.14743017e+04  2.15046534e+04  1.36e-05 3.39e-08  1.63e-04     9s
  22   2.14815126e+04  2.14962699e+04  4.34e-06 1.90e-08  7.86e-05     9s
  23   2.14838102e+04  2.14906092e+04  1.67e-06 9.04e-09  3.61e-05     9s
  24   2.14846860e+04  2.14882428e+04  7.31e-07 4.76e-09  1.89e-05     9s
  25   2.14851685e+04  2.14867578e+04  3.27e-07 2.06e-09  8.44e-06     9s
  26   2.14854683e+04  2.14859727e+04  9.98e-08 6.01e-10  2.68e-06     9s
  27   2.14855407e+04  2.14858264e+04  5.41e-08 3.47e-10  1.52e-06     9s
  28   2.14856041e+04  2.14856769e+04  1.24e-08 8.11e-11  3.87e-07     9s
  29   2.14856154e+04  2.14856410e+04  6.05e-09 1.99e-11  1.37e-07     9s
  30   2.14856234e+04  2.14856313e+04  2.25e-09 4.37e-12  4.28e-08     9s
  31   2.14856268e+04  2.14856302e+04  2.28e-07 2.57e-12  1.78e-08    10s
  32   2.14856282e+04  2.14856286e+04  4.08e-08 2.81e-13  2.04e-09    10s
  33   2.14856284e+04  2.14856284e+04  3.05e-07 3.40e-13  1.34e-10    10s

Barrier solved model in 33 iterations and 9.79 seconds (10.31 work units)
Optimal objective 2.14856284e+04

Crossover log...

   36867 DPushes remaining with DInf 1.0490331e-03                10s
    1423 DPushes remaining with DInf 0.0000000e+00                10s
       0 DPushes remaining with DInf 0.0000000e+00                10s

   15813 PPushes remaining with PInf 1.5139097e-04                10s
       0 PPushes remaining with PInf 0.0000000e+00                10s

  Push phase complete: Pinf 0.0000000e+00, Dinf 3.5471875e-01     10s

Iteration    Objective       Primal Inf.    Dual Inf.      Time
   48798    2.1485628e+04   0.000000e+00   3.547188e-01     10s

Solved with barrier
Extra simplex iterations after uncrush: 3
   50237    2.1485628e+04   0.000000e+00   0.000000e+00     11s

Use crossover to convert LP symmetric solution to basic solution...
Crossover log...

    2998 DPushes remaining with DInf 0.0000000e+00                11s
       0 DPushes remaining with DInf 0.0000000e+00                11s

    4647 PPushes remaining with PInf 0.0000000e+00                11s
       0 PPushes remaining with PInf 0.0000000e+00                11s

  Push phase complete: Pinf 0.0000000e+00, Dinf 4.6028736e-12     11s

Iteration    Objective       Primal Inf.    Dual Inf.      Time
   67669    2.1485904e+04   1.000000e-06   2.156137e+06     15s
   76341    2.1486020e+04   0.000000e+00   1.424260e+06     21s
   80430    2.1486035e+04   0.000000e+00   5.016063e+04     27s
   82442    2.1486039e+04   0.000000e+00   1.162979e+05     30s
   84435    2.1486043e+04   0.000000e+00   2.188681e+06     37s
   85709    2.1486045e+04   0.000000e+00   1.886937e+05     41s
   86983    2.1486047e+04   0.000000e+00   6.312200e+05     46s
   88257    2.1486050e+04   0.000000e+00   8.645668e+05     50s
   89531    2.1486052e+04   0.000000e+00   5.334959e+04     56s
   90805    2.1486055e+04   0.000000e+00   9.157257e+05     60s
   92733    2.1486057e+04   0.000000e+00   2.236131e+04     67s
   94007    2.1486059e+04   0.000000e+00   7.575772e+05     72s
   94644    2.1486060e+04   0.000000e+00   2.436579e+05     76s
   95918    2.1486061e+04   0.000000e+00   2.098014e+05     81s
   97192    2.1486062e+04   0.000000e+00   1.056615e+05     86s
   98466    2.1486063e+04   0.000000e+00   7.102757e+04     93s
   99103    2.1486064e+04   0.000000e+00   1.438510e+05     96s
  100377    2.1486064e+04   0.000000e+00   1.396412e+05    102s
  101014    2.1486065e+04   0.000000e+00   7.054238e+04    105s
  102288    2.1486065e+04   0.000000e+00   1.049585e+06    112s
  102925    2.1486065e+04   0.000000e+00   3.611857e+04    116s
  103562    2.1486065e+04   0.000000e+00   8.979928e+04    121s
  104836    2.1486066e+04   0.000000e+00   4.259544e+04    129s
  105473    2.1486066e+04   0.000000e+00   6.823091e+04    133s
  106110    2.1486067e+04   0.000000e+00   1.028005e+04    137s
  106747    2.1486067e+04   0.000000e+00   1.395326e+04    141s
  107384    2.1486067e+04   0.000000e+00   2.099723e+04    145s
  108658    2.1486067e+04   0.000000e+00   1.583142e+04    152s
  109295    2.1486068e+04   0.000000e+00   3.972690e+04    156s
  109932    2.1486068e+04   0.000000e+00   8.287268e+03    160s
  111206    2.1486068e+04   0.000000e+00   1.048853e+04    168s
  111843    2.1486068e+04   0.000000e+00   5.632258e+04    172s
  112480    2.1486068e+04   0.000000e+00   8.637423e+03    176s
  113754    2.1486069e+04   0.000000e+00   3.946848e+04    183s
  114391    2.1486069e+04   0.000000e+00   5.646146e+04    186s
  115028    2.1486069e+04   0.000000e+00   1.158389e+05    190s
  116302    2.1486069e+04   0.000000e+00   1.722558e+04    200s
  116939    2.1486069e+04   0.000000e+00   1.626906e+04    204s
  117576    2.1486069e+04   0.000000e+00   1.638594e+04    208s
  118213    2.1486070e+04   0.000000e+00   2.741853e+04    211s
  118850    2.1486070e+04   0.000000e+00   1.601724e+04    215s
  120124    2.1486070e+04   0.000000e+00   1.419261e+04    224s
  120761    2.1486070e+04   0.000000e+00   8.900081e+03    228s
  121398    2.1486070e+04   0.000000e+00   4.807352e+04    233s
  122035    2.1486070e+04   0.000000e+00   1.442831e+04    237s
  122672    2.1486070e+04   0.000000e+00   1.361450e+04    241s
  123309    2.1486071e+04   0.000000e+00   7.770086e+03    245s
  124583    2.1486071e+04   0.000000e+00   6.419099e+03    253s
  125220    2.1486071e+04   0.000000e+00   7.629009e+03    258s
  125857    2.1486071e+04   0.000000e+00   7.864799e+03    263s
  126494    2.1486071e+04   0.000000e+00   1.074032e+04    267s
  127131    2.1486071e+04   0.000000e+00   1.860292e+04    272s
  127768    2.1486071e+04   0.000000e+00   8.777368e+03    276s
  128405    2.1486071e+04   0.000000e+00   3.444569e+03    281s
  129042    2.1486071e+04   0.000000e+00   9.768117e+03    286s
  129679    2.1486071e+04   0.000000e+00   4.284443e+03    290s
  130953    2.1486071e+04   0.000000e+00   1.513265e+04    297s
  131590    2.1486071e+04   0.000000e+00   9.677828e+02    301s
  132864    2.1486071e+04   0.000000e+00   3.164647e+03    308s
  133501    2.1486072e+04   0.000000e+00   3.151500e+03    314s
  134138    2.1486072e+04   0.000000e+00   2.514687e+03    319s
  134775    2.1486072e+04   0.000000e+00   1.318745e+03    324s
  135412    2.1486072e+04   0.000000e+00   8.096084e+03    328s
  136049    2.1486072e+04   0.000000e+00   5.641468e+03    333s
  136686    2.1486072e+04   0.000000e+00   6.690804e+03    338s
  137323    2.1486072e+04   0.000000e+00   1.125481e+04    343s
  137960    2.1486072e+04   0.000000e+00   1.620087e+03    347s
  138597    2.1486072e+04   0.000000e+00   1.662506e+03    352s
  139234    2.1486072e+04   0.000000e+00   1.553020e+04    356s
  139871    2.1486072e+04   0.000000e+00   3.688964e+03    361s
  141145    2.1486072e+04   0.000000e+00   1.623378e+03    368s
  141782    2.1486072e+04   0.000000e+00   1.221471e+03    372s
  142419    2.1486072e+04   0.000000e+00   1.208571e+03    377s
  143056    2.1486072e+04   0.000000e+00   6.014569e+02    382s
  143693    2.1486072e+04   0.000000e+00   1.115931e+03    386s
  144967    2.1486072e+04   0.000000e+00   4.344472e+02    394s
  145604    2.1486072e+04   0.000000e+00   3.961424e+03    397s
  146241    2.1486072e+04   0.000000e+00   6.555498e+02    401s
  146878    2.1486072e+04   0.000000e+00   1.264924e+02    406s
  148152    2.1486072e+04   0.000000e+00   2.122432e+02    413s
  148789    2.1486072e+04   0.000000e+00   2.051161e+02    417s
  149426    2.1486072e+04   0.000000e+00   4.700495e-01    420s
Extra simplex iterations after uncrush: 91615
  149483    2.1485628e+04   0.000000e+00   0.000000e+00    422s

Solved in 149483 iterations and 421.73 seconds (558.84 work units)
Optimal objective  2.148562844e+04
